NAME           C:\Bruker\Hvattum\knapsack\Problems\class4\100-10-11.mps
ROWS
 N  OBJ
 L  CONSTR1
 L  CONSTR2
 L  CONSTR3
 L  CONSTR4
 L  CONSTR5
 L  CONSTR6
 L  CONSTR7
 L  CONSTR8
 L  CONSTR9
 L  CONSTR10
COLUMNS
    INT0001   'MARKER'  'INTORG'
    X1        OBJ       694
    X1        CONSTR1   300
    X1        CONSTR2   727
    X1        CONSTR3   10
    X1        CONSTR4   243
    X1        CONSTR5   298
    X1        CONSTR6   596
    X1        CONSTR7   846
    X1        CONSTR8   113
    X1        CONSTR9   929
    X1        CONSTR10  492
    X2        OBJ       668
    X2        CONSTR1   312
    X2        CONSTR2   393
    X2        CONSTR3   573
    X2        CONSTR4   542
    X2        CONSTR5   841
    X2        CONSTR6   470
    X2        CONSTR7   275
    X2        CONSTR8   575
    X2        CONSTR9   232
    X2        CONSTR10  581
    X3        OBJ       755
    X3        CONSTR1   576
    X3        CONSTR2   192
    X3        CONSTR3   138
    X3        CONSTR4   212
    X3        CONSTR5   276
    X3        CONSTR6   904
    X3        CONSTR7   746
    X3        CONSTR8   747
    X3        CONSTR9   91
    X3        CONSTR10  916
    X4        OBJ       826
    X4        CONSTR1   457
    X4        CONSTR2   689
    X4        CONSTR3   178
    X4        CONSTR4   103
    X4        CONSTR5   15
    X4        CONSTR6   327
    X4        CONSTR7   274
    X4        CONSTR8   970
    X4        CONSTR9   564
    X4        CONSTR10  686
    X5        OBJ       568
    X5        CONSTR1   753
    X5        CONSTR2   360
    X5        CONSTR3   320
    X5        CONSTR4   402
    X5        CONSTR5   748
    X5        CONSTR6   662
    X5        CONSTR7   604
    X5        CONSTR8   657
    X5        CONSTR9   425
    X5        CONSTR10  692
    X6        OBJ       989
    X6        CONSTR1   964
    X6        CONSTR2   259
    X6        CONSTR3   813
    X6        CONSTR4   61
    X6        CONSTR5   562
    X6        CONSTR6   679
    X6        CONSTR7   602
    X6        CONSTR8   702
    X6        CONSTR9   489
    X6        CONSTR10  452
    X7        OBJ       530
    X7        CONSTR1   561
    X7        CONSTR2   55
    X7        CONSTR3   810
    X7        CONSTR4   89
    X7        CONSTR5   840
    X7        CONSTR6   630
    X7        CONSTR7   7
    X7        CONSTR8   782
    X7        CONSTR9   418
    X7        CONSTR10  475
    X8        OBJ       604
    X8        CONSTR1   826
    X8        CONSTR2   428
    X8        CONSTR3   102
    X8        CONSTR4   503
    X8        CONSTR5   610
    X8        CONSTR6   871
    X8        CONSTR7   415
    X8        CONSTR8   860
    X8        CONSTR9   370
    X8        CONSTR10  881
    X9        OBJ       946
    X9        CONSTR1   136
    X9        CONSTR2   243
    X9        CONSTR3   601
    X9        CONSTR4   112
    X9        CONSTR5   844
    X9        CONSTR6   960
    X9        CONSTR7   845
    X9        CONSTR8   85
    X9        CONSTR9   710
    X9        CONSTR10  598
    X10       OBJ       904
    X10       CONSTR1   369
    X10       CONSTR2   859
    X10       CONSTR3   975
    X10       CONSTR4   131
    X10       CONSTR5   784
    X10       CONSTR6   632
    X10       CONSTR7   102
    X10       CONSTR8   397
    X10       CONSTR9   549
    X10       CONSTR10  304
    X11       OBJ       456
    X11       CONSTR1   372
    X11       CONSTR2   701
    X11       CONSTR3   335
    X11       CONSTR4   354
    X11       CONSTR5   294
    X11       CONSTR6   181
    X11       CONSTR7   533
    X11       CONSTR8   589
    X11       CONSTR9   316
    X11       CONSTR10  346
    X12       OBJ       899
    X12       CONSTR1   510
    X12       CONSTR2   926
    X12       CONSTR3   935
    X12       CONSTR4   748
    X12       CONSTR5   290
    X12       CONSTR6   336
    X12       CONSTR7   119
    X12       CONSTR8   313
    X12       CONSTR9   906
    X12       CONSTR10  8
    X13       OBJ       847
    X13       CONSTR1   34
    X13       CONSTR2   895
    X13       CONSTR3   694
    X13       CONSTR4   743
    X13       CONSTR5   676
    X13       CONSTR6   237
    X13       CONSTR7   872
    X13       CONSTR8   113
    X13       CONSTR9   126
    X13       CONSTR10  952
    X14       OBJ       636
    X14       CONSTR1   871
    X14       CONSTR2   584
    X14       CONSTR3   49
    X14       CONSTR4   324
    X14       CONSTR5   257
    X14       CONSTR6   176
    X14       CONSTR7   962
    X14       CONSTR8   310
    X14       CONSTR9   627
    X14       CONSTR10  937
    X15       OBJ       593
    X15       CONSTR1   708
    X15       CONSTR2   115
    X15       CONSTR3   247
    X15       CONSTR4   723
    X15       CONSTR5   618
    X15       CONSTR6   783
    X15       CONSTR7   911
    X15       CONSTR8   39
    X15       CONSTR9   75
    X15       CONSTR10  924
    X16       OBJ       791
    X16       CONSTR1   446
    X16       CONSTR2   927
    X16       CONSTR3   476
    X16       CONSTR4   763
    X16       CONSTR5   910
    X16       CONSTR6   70
    X16       CONSTR7   170
    X16       CONSTR8   669
    X16       CONSTR9   746
    X16       CONSTR10  71
    X17       OBJ       824
    X17       CONSTR1   821
    X17       CONSTR2   191
    X17       CONSTR3   784
    X17       CONSTR4   242
    X17       CONSTR5   256
    X17       CONSTR6   873
    X17       CONSTR7   62
    X17       CONSTR8   891
    X17       CONSTR9   894
    X17       CONSTR10  266
    X18       OBJ       676
    X18       CONSTR1   126
    X18       CONSTR2   508
    X18       CONSTR3   668
    X18       CONSTR4   621
    X18       CONSTR5   68
    X18       CONSTR6   320
    X18       CONSTR7   926
    X18       CONSTR8   445
    X18       CONSTR9   384
    X18       CONSTR10  406
    X19       OBJ       602
    X19       CONSTR1   646
    X19       CONSTR2   117
    X19       CONSTR3   550
    X19       CONSTR4   935
    X19       CONSTR5   389
    X19       CONSTR6   359
    X19       CONSTR7   762
    X19       CONSTR8   897
    X19       CONSTR9   505
    X19       CONSTR10  127
    X20       OBJ       1030
    X20       CONSTR1   838
    X20       CONSTR2   891
    X20       CONSTR3   33
    X20       CONSTR4   905
    X20       CONSTR5   649
    X20       CONSTR6   726
    X20       CONSTR7   177
    X20       CONSTR8   804
    X20       CONSTR9   899
    X20       CONSTR10  705
    X21       OBJ       753
    X21       CONSTR1   986
    X21       CONSTR2   231
    X21       CONSTR3   367
    X21       CONSTR4   327
    X21       CONSTR5   97
    X21       CONSTR6   253
    X21       CONSTR7   308
    X21       CONSTR8   36
    X21       CONSTR9   524
    X21       CONSTR10  502
    X22       OBJ       502
    X22       CONSTR1   180
    X22       CONSTR2   656
    X22       CONSTR3   116
    X22       CONSTR4   90
    X22       CONSTR5   231
    X22       CONSTR6   759
    X22       CONSTR7   550
    X22       CONSTR8   221
    X22       CONSTR9   578
    X22       CONSTR10  221
    X23       OBJ       605
    X23       CONSTR1   758
    X23       CONSTR2   518
    X23       CONSTR3   781
    X23       CONSTR4   781
    X23       CONSTR5   477
    X23       CONSTR6   718
    X23       CONSTR7   755
    X23       CONSTR8   173
    X23       CONSTR9   17
    X23       CONSTR10  769
    X24       OBJ       789
    X24       CONSTR1   448
    X24       CONSTR2   52
    X24       CONSTR3   680
    X24       CONSTR4   766
    X24       CONSTR5   52
    X24       CONSTR6   575
    X24       CONSTR7   79
    X24       CONSTR8   398
    X24       CONSTR9   294
    X24       CONSTR10  678
    X25       OBJ       654
    X25       CONSTR1   883
    X25       CONSTR2   918
    X25       CONSTR3   714
    X25       CONSTR4   311
    X25       CONSTR5   685
    X25       CONSTR6   786
    X25       CONSTR7   994
    X25       CONSTR8   481
    X25       CONSTR9   432
    X25       CONSTR10  338
    X26       OBJ       902
    X26       CONSTR1   993
    X26       CONSTR2   990
    X26       CONSTR3   954
    X26       CONSTR4   399
    X26       CONSTR5   872
    X26       CONSTR6   286
    X26       CONSTR7   369
    X26       CONSTR8   667
    X26       CONSTR9   133
    X26       CONSTR10  999
    X27       OBJ       750
    X27       CONSTR1   19
    X27       CONSTR2   299
    X27       CONSTR3   345
    X27       CONSTR4   233
    X27       CONSTR5   788
    X27       CONSTR6   89
    X27       CONSTR7   345
    X27       CONSTR8   932
    X27       CONSTR9   254
    X27       CONSTR10  896
    X28       OBJ       507
    X28       CONSTR1   285
    X28       CONSTR2   955
    X28       CONSTR3   79
    X28       CONSTR4   116
    X28       CONSTR5   54
    X28       CONSTR6   594
    X28       CONSTR7   336
    X28       CONSTR8   921
    X28       CONSTR9   58
    X28       CONSTR10  453
    X29       OBJ       914
    X29       CONSTR1   213
    X29       CONSTR2   752
    X29       CONSTR3   669
    X29       CONSTR4   967
    X29       CONSTR5   653
    X29       CONSTR6   151
    X29       CONSTR7   217
    X29       CONSTR8   361
    X29       CONSTR9   519
    X29       CONSTR10  79
    X30       OBJ       578
    X30       CONSTR1   738
    X30       CONSTR2   307
    X30       CONSTR3   616
    X30       CONSTR4   193
    X30       CONSTR5   549
    X30       CONSTR6   146
    X30       CONSTR7   713
    X30       CONSTR8   752
    X30       CONSTR9   182
    X30       CONSTR10  904
    X31       OBJ       871
    X31       CONSTR1   897
    X31       CONSTR2   807
    X31       CONSTR3   931
    X31       CONSTR4   731
    X31       CONSTR5   371
    X31       CONSTR6   155
    X31       CONSTR7   322
    X31       CONSTR8   775
    X31       CONSTR9   692
    X31       CONSTR10  675
    X32       OBJ       757
    X32       CONSTR1   43
    X32       CONSTR2   684
    X32       CONSTR3   247
    X32       CONSTR4   479
    X32       CONSTR5   429
    X32       CONSTR6   154
    X32       CONSTR7   299
    X32       CONSTR8   867
    X32       CONSTR9   907
    X32       CONSTR10  944
    X33       OBJ       719
    X33       CONSTR1   82
    X33       CONSTR2   313
    X33       CONSTR3   779
    X33       CONSTR4   228
    X33       CONSTR5   36
    X33       CONSTR6   963
    X33       CONSTR7   934
    X33       CONSTR8   27
    X33       CONSTR9   5
    X33       CONSTR10  895
    X34       OBJ       667
    X34       CONSTR1   199
    X34       CONSTR2   226
    X34       CONSTR3   121
    X34       CONSTR4   250
    X34       CONSTR5   577
    X34       CONSTR6   772
    X34       CONSTR7   999
    X34       CONSTR8   968
    X34       CONSTR9   624
    X34       CONSTR10  519
    X35       OBJ       1046
    X35       CONSTR1   777
    X35       CONSTR2   836
    X35       CONSTR3   419
    X35       CONSTR4   802
    X35       CONSTR5   317
    X35       CONSTR6   897
    X35       CONSTR7   230
    X35       CONSTR8   953
    X35       CONSTR9   386
    X35       CONSTR10  457
    X36       OBJ       863
    X36       CONSTR1   956
    X36       CONSTR2   828
    X36       CONSTR3   993
    X36       CONSTR4   793
    X36       CONSTR5   804
    X36       CONSTR6   731
    X36       CONSTR7   209
    X36       CONSTR8   724
    X36       CONSTR9   225
    X36       CONSTR10  746
    X37       OBJ       610
    X37       CONSTR1   539
    X37       CONSTR2   104
    X37       CONSTR3   216
    X37       CONSTR4   177
    X37       CONSTR5   944
    X37       CONSTR6   338
    X37       CONSTR7   577
    X37       CONSTR8   623
    X37       CONSTR9   229
    X37       CONSTR10  257
    X38       OBJ       1023
    X38       CONSTR1   589
    X38       CONSTR2   154
    X38       CONSTR3   87
    X38       CONSTR4   550
    X38       CONSTR5   988
    X38       CONSTR6   731
    X38       CONSTR7   452
    X38       CONSTR8   227
    X38       CONSTR9   986
    X38       CONSTR10  833
    X39       OBJ       600
    X39       CONSTR1   243
    X39       CONSTR2   908
    X39       CONSTR3   76
    X39       CONSTR4   958
    X39       CONSTR5   99
    X39       CONSTR6   394
    X39       CONSTR7   438
    X39       CONSTR8   429
    X39       CONSTR9   157
    X39       CONSTR10  701
    X40       OBJ       367
    X40       CONSTR1   140
    X40       CONSTR2   412
    X40       CONSTR3   22
    X40       CONSTR4   212
    X40       CONSTR5   418
    X40       CONSTR6   629
    X40       CONSTR7   779
    X40       CONSTR8   237
    X40       CONSTR9   118
    X40       CONSTR10  426
    X41       OBJ       885
    X41       CONSTR1   232
    X41       CONSTR2   313
    X41       CONSTR3   709
    X41       CONSTR4   72
    X41       CONSTR5   827
    X41       CONSTR6   639
    X41       CONSTR7   188
    X41       CONSTR8   993
    X41       CONSTR9   386
    X41       CONSTR10  292
    X42       OBJ       680
    X42       CONSTR1   259
    X42       CONSTR2   843
    X42       CONSTR3   121
    X42       CONSTR4   521
    X42       CONSTR5   970
    X42       CONSTR6   516
    X42       CONSTR7   976
    X42       CONSTR8   878
    X42       CONSTR9   61
    X42       CONSTR10  606
    X43       OBJ       911
    X43       CONSTR1   599
    X43       CONSTR2   459
    X43       CONSTR3   550
    X43       CONSTR4   168
    X43       CONSTR5   387
    X43       CONSTR6   403
    X43       CONSTR7   451
    X43       CONSTR8   254
    X43       CONSTR9   667
    X43       CONSTR10  583
    X44       OBJ       791
    X44       CONSTR1   297
    X44       CONSTR2   275
    X44       CONSTR3   285
    X44       CONSTR4   383
    X44       CONSTR5   182
    X44       CONSTR6   997
    X44       CONSTR7   229
    X44       CONSTR8   276
    X44       CONSTR9   725
    X44       CONSTR10  12
    X45       OBJ       1021
    X45       CONSTR1   367
    X45       CONSTR2   841
    X45       CONSTR3   715
    X45       CONSTR4   498
    X45       CONSTR5   606
    X45       CONSTR6   189
    X45       CONSTR7   948
    X45       CONSTR8   709
    X45       CONSTR9   275
    X45       CONSTR10  709
    X46       OBJ       556
    X46       CONSTR1   781
    X46       CONSTR2   50
    X46       CONSTR3   547
    X46       CONSTR4   605
    X46       CONSTR5   591
    X46       CONSTR6   302
    X46       CONSTR7   387
    X46       CONSTR8   305
    X46       CONSTR9   814
    X46       CONSTR10  32
    X47       OBJ       768
    X47       CONSTR1   406
    X47       CONSTR2   749
    X47       CONSTR3   838
    X47       CONSTR4   746
    X47       CONSTR5   904
    X47       CONSTR6   676
    X47       CONSTR7   630
    X47       CONSTR8   362
    X47       CONSTR9   244
    X47       CONSTR10  241
    X48       OBJ       511
    X48       CONSTR1   536
    X48       CONSTR2   364
    X48       CONSTR3   475
    X48       CONSTR4   365
    X48       CONSTR5   669
    X48       CONSTR6   424
    X48       CONSTR7   756
    X48       CONSTR8   554
    X48       CONSTR9   67
    X48       CONSTR10  123
    X49       OBJ       465
    X49       CONSTR1   317
    X49       CONSTR2   392
    X49       CONSTR3   750
    X49       CONSTR4   790
    X49       CONSTR5   26
    X49       CONSTR6   542
    X49       CONSTR7   362
    X49       CONSTR8   246
    X49       CONSTR9   89
    X49       CONSTR10  185
    X50       OBJ       667
    X50       CONSTR1   729
    X50       CONSTR2   562
    X50       CONSTR3   996
    X50       CONSTR4   356
    X50       CONSTR5   39
    X50       CONSTR6   257
    X50       CONSTR7   748
    X50       CONSTR8   206
    X50       CONSTR9   464
    X50       CONSTR10  279
    X51       OBJ       840
    X51       CONSTR1   788
    X51       CONSTR2   807
    X51       CONSTR3   117
    X51       CONSTR4   957
    X51       CONSTR5   208
    X51       CONSTR6   963
    X51       CONSTR7   458
    X51       CONSTR8   262
    X51       CONSTR9   353
    X51       CONSTR10  158
    X52       OBJ       779
    X52       CONSTR1   844
    X52       CONSTR2   437
    X52       CONSTR3   953
    X52       CONSTR4   976
    X52       CONSTR5   23
    X52       CONSTR6   223
    X52       CONSTR7   112
    X52       CONSTR8   378
    X52       CONSTR9   807
    X52       CONSTR10  232
    X53       OBJ       454
    X53       CONSTR1   848
    X53       CONSTR2   56
    X53       CONSTR3   494
    X53       CONSTR4   562
    X53       CONSTR5   142
    X53       CONSTR6   480
    X53       CONSTR7   518
    X53       CONSTR8   580
    X53       CONSTR9   559
    X53       CONSTR10  296
    X54       OBJ       728
    X54       CONSTR1   846
    X54       CONSTR2   903
    X54       CONSTR3   581
    X54       CONSTR4   954
    X54       CONSTR5   16
    X54       CONSTR6   440
    X54       CONSTR7   645
    X54       CONSTR8   111
    X54       CONSTR9   559
    X54       CONSTR10  734
    X55       OBJ       554
    X55       CONSTR1   105
    X55       CONSTR2   334
    X55       CONSTR3   147
    X55       CONSTR4   335
    X55       CONSTR5   663
    X55       CONSTR6   204
    X55       CONSTR7   979
    X55       CONSTR8   688
    X55       CONSTR9   641
    X55       CONSTR10  82
    X56       OBJ       581
    X56       CONSTR1   837
    X56       CONSTR2   394
    X56       CONSTR3   392
    X56       CONSTR4   432
    X56       CONSTR5   396
    X56       CONSTR6   112
    X56       CONSTR7   490
    X56       CONSTR8   498
    X56       CONSTR9   576
    X56       CONSTR10  297
    X57       OBJ       825
    X57       CONSTR1   960
    X57       CONSTR2   711
    X57       CONSTR3   343
    X57       CONSTR4   341
    X57       CONSTR5   112
    X57       CONSTR6   322
    X57       CONSTR7   7
    X57       CONSTR8   777
    X57       CONSTR9   534
    X57       CONSTR10  303
    X58       OBJ       559
    X58       CONSTR1   485
    X58       CONSTR2   48
    X58       CONSTR3   446
    X58       CONSTR4   511
    X58       CONSTR5   363
    X58       CONSTR6   778
    X58       CONSTR7   579
    X58       CONSTR8   284
    X58       CONSTR9   797
    X58       CONSTR10  771
    X59       OBJ       631
    X59       CONSTR1   36
    X59       CONSTR2   17
    X59       CONSTR3   690
    X59       CONSTR4   402
    X59       CONSTR5   799
    X59       CONSTR6   5
    X59       CONSTR7   750
    X59       CONSTR8   222
    X59       CONSTR9   103
    X59       CONSTR10  393
    X60       OBJ       992
    X60       CONSTR1   881
    X60       CONSTR2   285
    X60       CONSTR3   574
    X60       CONSTR4   124
    X60       CONSTR5   706
    X60       CONSTR6   538
    X60       CONSTR7   693
    X60       CONSTR8   879
    X60       CONSTR9   843
    X60       CONSTR10  403
    X61       OBJ       472
    X61       CONSTR1   585
    X61       CONSTR2   142
    X61       CONSTR3   419
    X61       CONSTR4   537
    X61       CONSTR5   115
    X61       CONSTR6   498
    X61       CONSTR7   277
    X61       CONSTR8   826
    X61       CONSTR9   358
    X61       CONSTR10  604
    X62       OBJ       633
    X62       CONSTR1   327
    X62       CONSTR2   620
    X62       CONSTR3   304
    X62       CONSTR4   439
    X62       CONSTR5   343
    X62       CONSTR6   645
    X62       CONSTR7   30
    X62       CONSTR8   135
    X62       CONSTR9   788
    X62       CONSTR10  26
    X63       OBJ       834
    X63       CONSTR1   143
    X63       CONSTR2   783
    X63       CONSTR3   882
    X63       CONSTR4   18
    X63       CONSTR5   212
    X63       CONSTR6   155
    X63       CONSTR7   518
    X63       CONSTR8   698
    X63       CONSTR9   637
    X63       CONSTR10  225
    X64       OBJ       580
    X64       CONSTR1   846
    X64       CONSTR2   807
    X64       CONSTR3   78
    X64       CONSTR4   788
    X64       CONSTR5   251
    X64       CONSTR6   631
    X64       CONSTR7   732
    X64       CONSTR8   810
    X64       CONSTR9   385
    X64       CONSTR10  101
    X65       OBJ       680
    X65       CONSTR1   114
    X65       CONSTR2   343
    X65       CONSTR3   180
    X65       CONSTR4   41
    X65       CONSTR5   20
    X65       CONSTR6   420
    X65       CONSTR7   563
    X65       CONSTR8   317
    X65       CONSTR9   204
    X65       CONSTR10  128
    X66       OBJ       574
    X66       CONSTR1   981
    X66       CONSTR2   578
    X66       CONSTR3   450
    X66       CONSTR4   554
    X66       CONSTR5   252
    X66       CONSTR6   229
    X66       CONSTR7   588
    X66       CONSTR8   352
    X66       CONSTR9   447
    X66       CONSTR10  670
    X67       OBJ       805
    X67       CONSTR1   776
    X67       CONSTR2   768
    X67       CONSTR3   287
    X67       CONSTR4   198
    X67       CONSTR5   936
    X67       CONSTR6   407
    X67       CONSTR7   10
    X67       CONSTR8   802
    X67       CONSTR9   415
    X67       CONSTR10  175
    X68       OBJ       706
    X68       CONSTR1   3
    X68       CONSTR2   594
    X68       CONSTR3   1
    X68       CONSTR4   484
    X68       CONSTR5   992
    X68       CONSTR6   855
    X68       CONSTR7   494
    X68       CONSTR8   212
    X68       CONSTR9   418
    X68       CONSTR10  498
    X69       OBJ       661
    X69       CONSTR1   306
    X69       CONSTR2   1
    X69       CONSTR3   932
    X69       CONSTR4   615
    X69       CONSTR5   253
    X69       CONSTR6   138
    X69       CONSTR7   789
    X69       CONSTR8   39
    X69       CONSTR9   606
    X69       CONSTR10  839
    X70       OBJ       1175
    X70       CONSTR1   996
    X70       CONSTR2   885
    X70       CONSTR3   949
    X70       CONSTR4   746
    X70       CONSTR5   328
    X70       CONSTR6   238
    X70       CONSTR7   862
    X70       CONSTR8   639
    X70       CONSTR9   649
    X70       CONSTR10  548
    X71       OBJ       972
    X71       CONSTR1   293
    X71       CONSTR2   446
    X71       CONSTR3   365
    X71       CONSTR4   4
    X71       CONSTR5   731
    X71       CONSTR6   366
    X71       CONSTR7   815
    X71       CONSTR8   913
    X71       CONSTR9   472
    X71       CONSTR10  915
    X72       OBJ       863
    X72       CONSTR1   761
    X72       CONSTR2   422
    X72       CONSTR3   686
    X72       CONSTR4   737
    X72       CONSTR5   25
    X72       CONSTR6   776
    X72       CONSTR7   100
    X72       CONSTR8   619
    X72       CONSTR9   268
    X72       CONSTR10  276
    X73       OBJ       549
    X73       CONSTR1   264
    X73       CONSTR2   307
    X73       CONSTR3   392
    X73       CONSTR4   50
    X73       CONSTR5   782
    X73       CONSTR6   302
    X73       CONSTR7   806
    X73       CONSTR8   867
    X73       CONSTR9   455
    X73       CONSTR10  166
    X74       OBJ       662
    X74       CONSTR1   401
    X74       CONSTR2   846
    X74       CONSTR3   638
    X74       CONSTR4   257
    X74       CONSTR5   260
    X74       CONSTR6   271
    X74       CONSTR7   16
    X74       CONSTR8   453
    X74       CONSTR9   858
    X74       CONSTR10  791
    X75       OBJ       620
    X75       CONSTR1   677
    X75       CONSTR2   607
    X75       CONSTR3   383
    X75       CONSTR4   666
    X75       CONSTR5   441
    X75       CONSTR6   868
    X75       CONSTR7   78
    X75       CONSTR8   47
    X75       CONSTR9   341
    X75       CONSTR10  154
    X76       OBJ       994
    X76       CONSTR1   645
    X76       CONSTR2   128
    X76       CONSTR3   266
    X76       CONSTR4   913
    X76       CONSTR5   904
    X76       CONSTR6   624
    X76       CONSTR7   982
    X76       CONSTR8   138
    X76       CONSTR9   498
    X76       CONSTR10  433
    X77       OBJ       777
    X77       CONSTR1   911
    X77       CONSTR2   770
    X77       CONSTR3   769
    X77       CONSTR4   336
    X77       CONSTR5   375
    X77       CONSTR6   272
    X77       CONSTR7   262
    X77       CONSTR8   105
    X77       CONSTR9   563
    X77       CONSTR10  936
    X78       OBJ       738
    X78       CONSTR1   118
    X78       CONSTR2   608
    X78       CONSTR3   334
    X78       CONSTR4   302
    X78       CONSTR5   548
    X78       CONSTR6   3
    X78       CONSTR7   577
    X78       CONSTR8   432
    X78       CONSTR9   517
    X78       CONSTR10  787
    X79       OBJ       756
    X79       CONSTR1   318
    X79       CONSTR2   745
    X79       CONSTR3   578
    X79       CONSTR4   552
    X79       CONSTR5   649
    X79       CONSTR6   222
    X79       CONSTR7   21
    X79       CONSTR8   417
    X79       CONSTR9   891
    X79       CONSTR10  799
    X80       OBJ       683
    X80       CONSTR1   979
    X80       CONSTR2   186
    X80       CONSTR3   784
    X80       CONSTR4   173
    X80       CONSTR5   488
    X80       CONSTR6   462
    X80       CONSTR7   57
    X80       CONSTR8   673
    X80       CONSTR9   381
    X80       CONSTR10  287
    X81       OBJ       635
    X81       CONSTR1   235
    X81       CONSTR2   290
    X81       CONSTR3   640
    X81       CONSTR4   682
    X81       CONSTR5   510
    X81       CONSTR6   600
    X81       CONSTR7   597
    X81       CONSTR8   116
    X81       CONSTR9   785
    X81       CONSTR10  433
    X82       OBJ       934
    X82       CONSTR1   271
    X82       CONSTR2   593
    X82       CONSTR3   876
    X82       CONSTR4   747
    X82       CONSTR5   584
    X82       CONSTR6   839
    X82       CONSTR7   375
    X82       CONSTR8   323
    X82       CONSTR9   123
    X82       CONSTR10  506
    X83       OBJ       769
    X83       CONSTR1   874
    X83       CONSTR2   868
    X83       CONSTR3   900
    X83       CONSTR4   646
    X83       CONSTR5   1
    X83       CONSTR6   937
    X83       CONSTR7   599
    X83       CONSTR8   937
    X83       CONSTR9   426
    X83       CONSTR10  137
    X84       OBJ       363
    X84       CONSTR1   617
    X84       CONSTR2   493
    X84       CONSTR3   87
    X84       CONSTR4   453
    X84       CONSTR5   520
    X84       CONSTR6   267
    X84       CONSTR7   498
    X84       CONSTR8   73
    X84       CONSTR9   91
    X84       CONSTR10  70
    X85       OBJ       687
    X85       CONSTR1   719
    X85       CONSTR2   678
    X85       CONSTR3   116
    X85       CONSTR4   896
    X85       CONSTR5   609
    X85       CONSTR6   347
    X85       CONSTR7   731
    X85       CONSTR8   154
    X85       CONSTR9   444
    X85       CONSTR10  39
    X86       OBJ       715
    X86       CONSTR1   384
    X86       CONSTR2   197
    X86       CONSTR3   173
    X86       CONSTR4   752
    X86       CONSTR5   605
    X86       CONSTR6   957
    X86       CONSTR7   911
    X86       CONSTR8   90
    X86       CONSTR9   246
    X86       CONSTR10  280
    X87       OBJ       614
    X87       CONSTR1   201
    X87       CONSTR2   566
    X87       CONSTR3   540
    X87       CONSTR4   183
    X87       CONSTR5   139
    X87       CONSTR6   453
    X87       CONSTR7   267
    X87       CONSTR8   252
    X87       CONSTR9   374
    X87       CONSTR10  842
    X88       OBJ       838
    X88       CONSTR1   257
    X88       CONSTR2   127
    X88       CONSTR3   174
    X88       CONSTR4   599
    X88       CONSTR5   903
    X88       CONSTR6   716
    X88       CONSTR7   167
    X88       CONSTR8   406
    X88       CONSTR9   185
    X88       CONSTR10  594
    X89       OBJ       636
    X89       CONSTR1   201
    X89       CONSTR2   496
    X89       CONSTR3   182
    X89       CONSTR4   240
    X89       CONSTR5   74
    X89       CONSTR6   766
    X89       CONSTR7   843
    X89       CONSTR8   90
    X89       CONSTR9   312
    X89       CONSTR10  379
    X90       OBJ       630
    X90       CONSTR1   115
    X90       CONSTR2   914
    X90       CONSTR3   593
    X90       CONSTR4   493
    X90       CONSTR5   83
    X90       CONSTR6   770
    X90       CONSTR7   751
    X90       CONSTR8   398
    X90       CONSTR9   421
    X90       CONSTR10  511
    X91       OBJ       478
    X91       CONSTR1   277
    X91       CONSTR2   810
    X91       CONSTR3   488
    X91       CONSTR4   699
    X91       CONSTR5   429
    X91       CONSTR6   425
    X91       CONSTR7   565
    X91       CONSTR8   5
    X91       CONSTR9   608
    X91       CONSTR10  213
    X92       OBJ       961
    X92       CONSTR1   980
    X92       CONSTR2   364
    X92       CONSTR3   112
    X92       CONSTR4   694
    X92       CONSTR5   975
    X92       CONSTR6   444
    X92       CONSTR7   225
    X92       CONSTR8   195
    X92       CONSTR9   66
    X92       CONSTR10  597
    X93       OBJ       785
    X93       CONSTR1   860
    X93       CONSTR2   887
    X93       CONSTR3   831
    X93       CONSTR4   339
    X93       CONSTR5   501
    X93       CONSTR6   955
    X93       CONSTR7   402
    X93       CONSTR8   727
    X93       CONSTR9   429
    X93       CONSTR10  108
    X94       OBJ       713
    X94       CONSTR1   146
    X94       CONSTR2   132
    X94       CONSTR3   437
    X94       CONSTR4   361
    X94       CONSTR5   637
    X94       CONSTR6   801
    X94       CONSTR7   916
    X94       CONSTR8   461
    X94       CONSTR9   778
    X94       CONSTR10  18
    X95       OBJ       792
    X95       CONSTR1   200
    X95       CONSTR2   213
    X95       CONSTR3   257
    X95       CONSTR4   621
    X95       CONSTR5   451
    X95       CONSTR6   765
    X95       CONSTR7   279
    X95       CONSTR8   20
    X95       CONSTR9   193
    X95       CONSTR10  453
    X96       OBJ       744
    X96       CONSTR1   398
    X96       CONSTR2   685
    X96       CONSTR3   192
    X96       CONSTR4   668
    X96       CONSTR5   514
    X96       CONSTR6   52
    X96       CONSTR7   107
    X96       CONSTR8   47
    X96       CONSTR9   837
    X96       CONSTR10  902
    X97       OBJ       562
    X97       CONSTR1   604
    X97       CONSTR2   243
    X97       CONSTR3   6
    X97       CONSTR4   674
    X97       CONSTR5   435
    X97       CONSTR6   102
    X97       CONSTR7   348
    X97       CONSTR8   838
    X97       CONSTR9   381
    X97       CONSTR10  574
    X98       OBJ       838
    X98       CONSTR1   97
    X98       CONSTR2   390
    X98       CONSTR3   567
    X98       CONSTR4   870
    X98       CONSTR5   410
    X98       CONSTR6   766
    X98       CONSTR7   2
    X98       CONSTR8   207
    X98       CONSTR9   884
    X98       CONSTR10  107
    X99       OBJ       446
    X99       CONSTR1   301
    X99       CONSTR2   878
    X99       CONSTR3   239
    X99       CONSTR4   113
    X99       CONSTR5   205
    X99       CONSTR6   474
    X99       CONSTR7   541
    X99       CONSTR8   6
    X99       CONSTR9   130
    X99       CONSTR10  333
    X100      OBJ       1055
    X100      CONSTR1   686
    X100      CONSTR2   611
    X100      CONSTR3   467
    X100      CONSTR4   880
    X100      CONSTR5   829
    X100      CONSTR6   754
    X100      CONSTR7   938
    X100      CONSTR8   185
    X100      CONSTR9   247
    X100      CONSTR10  500
    INT0001   'MARKER'  'INTEND'
RHS
    RHS10001  CONSTR1   25307
    RHS10001  CONSTR2   25436
    RHS10001  CONSTR3   23390
    RHS10001  CONSTR4   24119
    RHS10001  CONSTR5   23307
    RHS10001  CONSTR6   25248
    RHS10001  CONSTR7   24830
    RHS10001  CONSTR8   23108
    RHS10001  CONSTR9   22625
    RHS10001  CONSTR10  23398
BOUNDS
 BV BND       X1        .00
 BV BND       X2        .00
 BV BND       X3        .00
 BV BND       X4        .00
 BV BND       X5        .00
 BV BND       X6        .00
 BV BND       X7        .00
 BV BND       X8        .00
 BV BND       X9        .00
 BV BND       X10       .00
 BV BND       X11       .00
 BV BND       X12       .00
 BV BND       X13       .00
 BV BND       X14       .00
 BV BND       X15       .00
 BV BND       X16       .00
 BV BND       X17       .00
 BV BND       X18       .00
 BV BND       X19       .00
 BV BND       X20       .00
 BV BND       X21       .00
 BV BND       X22       .00
 BV BND       X23       .00
 BV BND       X24       .00
 BV BND       X25       .00
 BV BND       X26       .00
 BV BND       X27       .00
 BV BND       X28       .00
 BV BND       X29       .00
 BV BND       X30       .00
 BV BND       X31       .00
 BV BND       X32       .00
 BV BND       X33       .00
 BV BND       X34       .00
 BV BND       X35       .00
 BV BND       X36       .00
 BV BND       X37       .00
 BV BND       X38       .00
 BV BND       X39       .00
 BV BND       X40       .00
 BV BND       X41       .00
 BV BND       X42       .00
 BV BND       X43       .00
 BV BND       X44       .00
 BV BND       X45       .00
 BV BND       X46       .00
 BV BND       X47       .00
 BV BND       X48       .00
 BV BND       X49       .00
 BV BND       X50       .00
 BV BND       X51       .00
 BV BND       X52       .00
 BV BND       X53       .00
 BV BND       X54       .00
 BV BND       X55       .00
 BV BND       X56       .00
 BV BND       X57       .00
 BV BND       X58       .00
 BV BND       X59       .00
 BV BND       X60       .00
 BV BND       X61       .00
 BV BND       X62       .00
 BV BND       X63       .00
 BV BND       X64       .00
 BV BND       X65       .00
 BV BND       X66       .00
 BV BND       X67       .00
 BV BND       X68       .00
 BV BND       X69       .00
 BV BND       X70       .00
 BV BND       X71       .00
 BV BND       X72       .00
 BV BND       X73       .00
 BV BND       X74       .00
 BV BND       X75       .00
 BV BND       X76       .00
 BV BND       X77       .00
 BV BND       X78       .00
 BV BND       X79       .00
 BV BND       X80       .00
 BV BND       X81       .00
 BV BND       X82       .00
 BV BND       X83       .00
 BV BND       X84       .00
 BV BND       X85       .00
 BV BND       X86       .00
 BV BND       X87       .00
 BV BND       X88       .00
 BV BND       X89       .00
 BV BND       X90       .00
 BV BND       X91       .00
 BV BND       X92       .00
 BV BND       X93       .00
 BV BND       X94       .00
 BV BND       X95       .00
 BV BND       X96       .00
 BV BND       X97       .00
 BV BND       X98       .00
 BV BND       X99       .00
 BV BND       X100      .00
ENDATA
